  2   0   0   0   0   0   0   0   0   0   0   0   0   0   0   0   0   0   0   0   0   0   0   0   0   0   0   0   0   0   0   0   0   0   0   0   0   0   0   0   0   0   0   0   0   0   0   0   0   0   0   0   0   0   0   0   0   0   0   0   0   0   0   0   0   0   0   0   0   0   0   0   0   0   0   0   0   0   0   0   0   0   0   0   0   0   0   0   0   0   0   0   0   0   0   0   0   0   0   0   0   0   0   0   0   0   0   0   0   0   0   0   0   0   0   0   0   0   0   0   0   0   0   0   0   0   0   0   0   0   0   0   0   0   0   0   0   0   0   0   0   0   0   0   0   0   0   0   0   0   0   0   0   0   0   0   0   0   0   0   0   0   0   0   0   0   0   0   0   0   0   0   0   0   0   0   0   0   0   0   0   0   0   0   0   0   0   0   0   0   0   0   0   0   0   0   0   0   0   0   0   0   0   0   0   0   0   0   0   0   0   0   0   0   0   0   0   0   0   0   0   0   0   0   0   0   0   0   0   0   0   0   0   0   0   0   0   0   0   0   0   0   0   0   0   0   0   0   0   0   0   0   0   0   0   0   0   0   0   0   0   0   0   0   0   0   0   0   0   0   0   0   0   0   0   0   0   0   0   0   0   0   0   0   0   0   0   0   0   0   0   0   0   0   0   0   0   0   0   0   0   0   0   0   0   0   0   0   0   0   0   0   0   0   0   0   0   0   0   0   0   0   0   0   0   0   0   0   0   0   0   0   0   0   0   0   0   0   0   0   0   0   0   0   0   0   0   0   0   0   0   0   0   0   0   0   0   0   0   0   0   0   0   0   0   0   0   0   0   0   0   0   0   0   0   0   0   0   0   0   0   0   0   0   0   0   0   0   0   0   0   0   0   0   0   0   0   0   0   0   0   0   0   0   0   0   0   0   0   0   0   0   0   0   0   0   0   0   0   0   0   0   0   0   0   0   0   0   0   0   0   0   0   0   0   0   0   0   0   0   0   0   0   0   0   0   0   0   0   0   0   0   0   0   0   0   0   0   0   0   0   0   0   0   0   0   0   0   0   0   0   0   0   0   0   0   0   0   0   0   0   0   0   0   0   0   0   0   0   0   0   0   0   0   0   0   0   0   0   0   0   0   0   0   0   0   0   0   0   0   0   0   0   0   0   0   0   0   0   0   0   0   0   0   0   0   0   0   0   0   0   0   0   0   0   0   0   0   0   0   0   0   0   0   0   0   0   0   0   0   0   0   0   0   0   0   0   0   0   0   0   0   0   0   0   0   0   0   0   0   0   0   0   0   0   0   0   0   0   0   0   0   0   0   0   0   0   0   0   0   0   0   0   0   0   0   0   0   0   0   0   0   0   0   0   0   0   0   0   0   0   0   0   0   0   0   0   0   0   0   0   0   0   0   0   0   0   0   0   0   0   0   0   0   0   0   0   0   0   0   0   0   0   0   0   0   0   0   0   0   0   0   0   0   0   0   0   0   0   0   0   0   0   0   0   0   0   0   0   0   0   0   0   0   0   0   0   0   0   0   0   0   0   0   0   0   0   0   0   0   0   0   0   0   0   0   0   0   0   0   0   0   0   0   0   0   0   0   0   0   0   0   0   0   0   0   0   0   0   0   0   0   0   0   0   0   0   0   0   0   0   0   0   0   0   0   0   0   0   0   0   0   0   0   0   0   0   0   0   0   0   0   0   0   0   0   0   0   0   0   0   0   0   0   0   0   0   0   0   0   0   0   0   0   0   0   0   0   0   0   0   0   0   0   0   0   0   0   0   0   0   0   0   0   0   0   0   0   0   0   0   0   0   0   0   0   0   0   0   0   0   0   0   0   0   0   0   0   0   0   0   0   0   0   0   0   0   0   0   0   0   0   0   0   0   0   0   0   0   0   0   0   0   0   0   0   0   0   0   0   0   0   0   0   0   0   0   0   0   0   0   0   0   0   0   0   0   0   0   0   0   0   0   0   0   0   0   0   0   0   0   0   0   0   0   0   0   0   0   0   0   0   0   0   0   0   0   0   0   0   0   0   0   0   0   0   0   0   0   0   0   0   0   0   0   0   0   0   0   0   0   0   0   0   0   0   0   0   0   0   0   0   0   0   0   0   0   0   0   0   0   0   0   0   0   0   0   0   0   0   0   0   0   0   0   0   0   0   0   0   0   0   0   0   0   0   0   0   0   0   0   0   0   0   0   0   0   0   0   0   0   0   0   0   0   0   0   0   0   0   0   0   0   0   0   0   0   0   0   0 
REMAINING SPACE:      88
ACCUMULATED PRIORITY: 200
EXECUTION TIME:       0.948893000
QTY PRI VAL
[2] 100 206
[0] 100 208
[0]  99 216
[0]  95 211
[0]  93 210
[0]  99 227
[0]  88 202
[0]  95 219
[0]  90 212
[0]  99 234
[0]  92 221
[0]  99 238
[0]  94 226
[0]  86 208
[0]  86 209
[0]  92 225
[0]  88 216
[0]  96 236
[0] 100 246
[0]  95 234
[0]  92 227
[0]  84 208
[0]  98 244
[0]  87 217
[0]  97 243
[0]  84 211
[0]  81 204
[0]  81 204
[0]  97 245
[0]  85 215
[0]  98 248
[0]  88 223
[0]  83 211
[0]  97 248
[0]  88 225
[0]  82 210
[0]  99 254
[0]  98 253
[0]  90 233
[0]  90 233
[0]  87 228
[0]  85 223
[0]  87 231
[0]  96 255
[0]  92 245
[0]  81 217
[0]  88 236
[0]  79 212
[0]  84 226
[0]  83 227
[0]  84 230
[0]  88 241
[0]  85 233
[0]  97 268
[0]  93 259
[0]  80 223
[0]  91 254
[0]  80 224
[0]  75 211
[0]  95 268
[0]  85 240
[0]  82 233
[0]  85 243
[0]  72 207
[0]  81 233
[0]  93 269
[0]  87 252
[0]  79 229
[0]  71 207
[0]  96 281
[0]  86 252
[0]  96 282
[0]  76 224
[0]  77 227
[0]  91 269
[0]  84 249
[0]  74 220
[0]  82 245
[0]  97 292
[0]  97 292
[0]  77 232
[0]  70 213
[0]  70 213
[0]  84 257
[0]  93 285
[0] 100 307
[0]  97 300
[0]  77 239
[0]  66 206
[0]  96 300
[0]  93 291
[0]  84 263
[0]  88 277
[0]  83 262
[0]  79 252
[0]  67 214
[0]  87 278
[0]  85 272
[0] 100 322
[0]  87 281
[0]  87 282
[0]  68 221
[0]  83 270
[0]  67 218
[0]  93 303
[0]  95 310
[0]  68 222
[0]  66 216
[0]  80 263
[0]  85 280
[0]  66 219
[0]  69 229
[0]  74 246
[0] 100 333
[0]  94 314
[0]  69 232
[0]  92 312
[0]  83 283
[0]  89 306
[0]  86 296
[0]  72 248
[0]  76 262
[0]  94 325
[0]  96 332
[0]  76 263
[0]  72 250
[0]  78 271
[0]  68 238
[0]  71 249
[0]  57 200
[0]  87 306
[0]  58 204
[0]  74 261
[0]  92 325
[0]  88 313
[0]  82 293
[0]  66 237
[0]  66 237
[0]  82 296
[0]  88 318
[0]  89 323
[0]  95 346
[0]  85 310
[0]  94 343
[0]  95 347
[0]  61 223
[0]  93 340
[0]  73 267
[0]  56 205
[0]  62 227
[0]  78 287
[0]  91 335
[0]  87 321
[0]  94 350
[0]  80 298
[0]  73 272
[0]  57 213
[0] 100 374
[0]  55 206
[0]  64 240
[0]  88 330
[0]  91 342
[0]  97 365
[0]  82 309
[0]  96 362
[0]  70 264
[0]  90 340
[0]  92 348
[0]  88 333
[0]  99 375
[0]  86 326
[0]  83 315
[0]  93 353
[0]  72 274
[0]  54 206
[0]  65 248
[0]  85 325
[0]  59 226
[0]  61 237
[0]  61 237
[0]  71 276
[0]  64 249
[0]  86 335
[0]  58 226
[0]  53 208
[0]  82 322
[0]  71 279
[0] 100 393
[0]  89 350
[0]  60 236
[0]  95 374
[0]  59 233
[0]  86 340
[0]  79 313
[0]  55 218
[0]  83 331
[0]  87 347
[0]  98 391
[0]  60 240
[0]  67 269
[0]  64 257
[0]  78 314
[0]  93 375
[0]  66 267
[0]  76 309
[0]  81 330
[0]  63 257
[0]  98 400
[0]  76 311
[0]  74 303
[0]  57 234
[0]  54 222
[0]  60 248
[0]  72 299
[0]  85 355
[0]  71 297
[0]  48 201
[0]  98 411
[0]  72 303
[0]  60 253
[0]  78 329
[0]  54 228
[0]  94 397
[0]  67 283
[0]  84 356
[0]  92 390
[0]  88 374
[0]  58 247
[0]  84 358
[0]  92 393
[0]  97 415
[0]  77 330
[0]  98 420
[0]  89 382
[0]  85 365
[0]  70 301
[0]  90 388
[0]  93 402
[0]  55 238
[0]  81 351
[0]  94 408
[0]  57 248
[0]  56 244
[0]  75 327
[0]  80 349
[0]  71 310
[0]  69 302
[0]  85 374
[0]  91 401
[0]  86 379
[0]  74 328
[0]  96 426
[0]  89 395
[0]  66 293
[0]  52 231
[0]  54 240
[0]  98 436
[0]  81 362
[0]  79 354
[0]  86 386
[0]  65 292
[0]  81 364
[0]  81 365
[0]  95 429
[0]  81 366
[0]  71 321
[0]  68 308
[0]  68 309
[0]  54 246
[0]  86 392
[0]  84 384
[0]  49 224
[0]  92 423
[0]  74 341
[0] 100 461
[0]  67 309
[0]  86 397
[0]  94 436
[0]  63 293
[0]  47 219
[0]  69 322
[0]  98 460
[0]  90 423
[0]  77 362
[0]  75 353
[0]  96 452
[0]  55 259
[0]  69 326
[0]  74 351
[0]  78 370
[0]  81 385
[0]  73 347
[0]  86 411
[0]  98 469
[0]  45 216
[0]  98 471
[0]  47 226
[0]  85 409
[0]  71 342
[0]  73 353
[0]  76 368
[0]  87 422
[0]  76 369
[0]  64 311
[0]  52 253
[0]  67 326
[0]  82 399
[0]  56 273
[0]  64 312
[0]  89 434
[0]  74 361
[0]  43 210
[0]  95 464
[0] 100 489
[0]  89 436
[0]  91 447
[0]  69 339
[0]  43 212
[0]  82 405
[0] 100 495
[0]  64 317
[0]  49 244
[0]  64 319
[0]  64 319
[0]  66 329
[0]  74 369
[0]  76 380
[0]  56 280
[0]  62 311
[0]  97 487
[0]  46 231
[0]  85 427
[0]  79 397
[0]  58 292
[0]  76 383
[0]  86 435
[0]  73 370
[0]  58 294
[0]  88 447
[0]  89 453
[0]  44 224
[0]  87 443
[0]  97 494
[0]  64 326
[0]  41 209
[0]  91 464
[0]  49 250
[0]  90 460
[0]  89 456
[0]  90 462
[0]  90 462
[0]  91 468
[0]  62 319
[0]  52 268
[0]  89 459
[0]  78 403
[0]  72 372
[0]  59 305
[0]  93 482
[0]  89 462
[0]  64 333
[0]  78 407
[0]  75 392
[0]  90 471
[0]  68 356
[0]  81 425
[0]  40 210
[0]  78 410
[0]  56 295
[0]  74 390
[0]  81 427
[0]  79 417
[0]  93 491
[0]  85 449
[0]  46 243
[0]  53 280
[0]  60 317
[0]  66 349
[0]  57 302
[0]  77 408
[0]  87 461
[0]  55 292
[0]  93 494
[0]  54 287
[0]  71 378
[0]  41 219
[0]  89 476
[0]  66 354
[0]  46 247
[0]  81 435
[0]  72 387
[0]  71 382
[0]  89 479
[0]  89 479
[0]  65 351
[0]  85 460
[0]  67 363
[0]  43 233
[0]  90 488
[0]  68 369
[0]  70 380
[0]  82 446
[0]  75 408
[0]  70 381
[0]  62 338
[0]  80 437
[0]  65 356
[0]  90 494
[0]  44 242
[0]  51 281
[0]  81 447
[0]  88 487
[0]  58 321
[0]  80 443
[0]  85 471
[0]  62 344
[0]  88 490
[0]  65 362
[0]  70 390
[0]  77 430
[0]  53 296
[0]  62 348
[0]  86 483
[0]  81 456
[0]  58 327
[0]  47 265
[0]  57 323
[0]  40 227
[0]  69 392
[0]  57 324
[0]  57 324
[0]  51 290
[0]  77 438
[0]  86 490
[0]  37 211
[0]  43 246
[0]  53 304
[0]  61 350
[0]  46 264
[0]  68 391
[0]  77 443
[0]  65 374
[0]  75 433
[0]  54 312
[0]  52 301
[0]  56 325
[0]  39 227
[0]  81 472
[0]  62 362
[0]  60 351
[0]  81 476
[0]  76 448
[0]  68 402
[0]  65 385
[0]  69 410
[0]  39 233
[0]  43 257
[0]  50 299
[0]  54 323
[0]  58 347
[0]  60 359
[0]  83 497
[0]  37 222
[0]  61 366
[0]  65 390
[0]  73 439
[0]  56 337
[0]  50 301
[0]  80 482
[0]  56 338
[0]  80 483
[0]  40 242
[0]  51 309
[0]  65 394
[0]  66 401
[0]  39 238
[0]  76 464
[0]  55 336
[0]  66 404
[0]  70 429
[0]  78 480
[0]  62 382
[0]  74 456
[0]  37 228
[0]  67 413
[0]  59 364
[0]  54 334
[0]  52 322
[0]  56 347
[0]  80 496
[0]  54 335
[0]  78 484
[0]  72 447
[0]  38 236
[0]  70 436
[0]  41 256
[0]  69 431
[0]  75 469
[0]  53 332
[0]  67 420
[0]  43 270
[0]  78 491
[0]  77 485
[0]  77 485
[0]  78 492
[0]  55 347
[0]  70 442
[0]  72 455
[0]  78 493
[0]  77 487
[0]  40 253
[0]  39 247
[0]  32 203
[0]  66 420
[0]  73 465
[0]  36 230
[0]  64 409
[0]  48 307
[0]  78 499
[0]  65 417
[0]  71 457
[0]  68 438
[0]  76 490
[0]  75 489
[0]  65 424
[0]  57 372
[0]  68 444
[0]  58 379
[0]  56 366
[0]  49 321
[0]  49 321
[0]  72 472
[0]  42 277
[0]  62 409
[0]  69 456
[0]  71 470
[0]  31 206
[0]  67 446
[0]  73 488
[0]  52 349
[0]  60 403
[0]  61 410
[0]  40 269
[0]  71 478
[0]  69 467
[0]  48 325
[0]  44 298
[0]  55 373
[0]  65 441
[0]  47 319
[0]  58 394
[0]  50 340
[0]  41 279
[0]  63 429
[0]  59 402
[0]  36 246
[0]  61 418
[0]  61 418
[0]  68 467
[0]  61 419
[0]  31 213
[0]  57 392
[0]  46 317
[0]  61 422
[0]  49 339
[0]  71 492
[0]  55 382
[0]  63 438
[0]  35 244
[0]  48 335
[0]  36 252
[0]  65 455
[0]  31 217
[0]  37 259
[0]  71 498
[0]  59 415
[0]  58 408
[0]  58 409
[0]  45 318
[0]  54 382
[0]  48 340
[0]  67 477
[0]  62 443
[0]  54 387
[0]  32 230
[0]  67 482
[0]  60 434
[0]  47 340
[0]  32 232
[0]  60 436
[0]  32 233
[0]  57 416
[0]  67 490
[0]  63 461
[0]  30 220
[0]  65 478
[0]  39 288
[0]  51 377
[0]  62 460
[0]  30 223
[0]  46 342
[0]  54 403
[0]  42 314
[0]  60 449
[0]  46 345
[0]  62 466
[0]  58 436
[0]  50 376
[0]  45 345
[0]  61 469
[0]  61 469
[0]  57 439
[0]  56 432
[0]  61 472
[0]  64 496
[0]  58 450
[0]  54 420
[0]  59 460
[0]  33 258
[0]  45 352
[0]  38 298
[0]  39 306
[0]  61 482
[0]  37 293
[0]  42 333
[0]  57 452
[0]  48 382
[0]  37 295
[0]  53 423
[0]  25 200
[0]  49 392
[0]  49 393
[0]  44 353
[0]  54 434
[0]  54 434
[0]  31 250
[0]  31 250
[0]  42 340
[0]  50 405
[0]  54 438
[0]  46 374
[0]  36 293
[0]  61 497
[0]  58 473
[0]  57 466
[0]  50 409
[0]  38 311
[0]  49 404
[0]  42 347
[0]  49 405
[0]  55 455
[0]  45 373
[0]  34 283
[0]  42 351
[0]  58 485
[0]  44 368
[0]  49 410
[0]  58 489
[0]  30 253
[0]  31 262
[0]  53 449
[0]  35 297
[0]  43 366
[0]  39 332
[0]  56 478
[0]  41 350
[0]  42 360
[0]  33 283
[0]  57 490
[0]  29 252
[0]  26 226
[0]  28 244
[0]  39 340
[0]  33 289
[0]  28 247
[0]  49 433
[0]  36 319
[0]  45 399
[0]  42 374
[0]  47 419
[0]  34 304
[0]  55 493
[0]  29 260
[0]  30 269
[0]  29 261
[0]  40 361
[0]  52 470
[0]  24 217
[0]  41 371
[0]  50 457
[0]  39 357
[0]  37 340
[0]  34 313
[0]  32 295
[0]  54 498
[0]  49 452
[0]  40 369
[0]  47 434
[0]  51 471
[0]  28 259
[0]  33 306
[0]  32 297
[0]  43 400
[0]  39 363
[0]  38 354
[0]  46 429
[0]  53 497
[0]  37 348
[0]  36 340
[0]  38 359
[0]  33 312
[0]  22 208
[0]  40 380
[0]  43 410
[0]  24 229
[0]  22 210
[0]  36 344
[0]  25 240
[0]  36 346
[0]  33 318
[0]  45 434
[0]  37 358
[0]  47 455
[0]  47 456
[0]  51 495
[0]  39 380
[0]  41 402
[0]  21 206
[0]  38 375
[0]  50 494
[0]  44 436
[0]  27 269
[0]  32 319
[0]  33 329
[0]  39 389
[0]  26 260
[0]  21 211
[0]  21 211
[0]  21 211
[0]  42 424
[0]  37 374
[0]  31 314
[0]  24 244
[0]  34 346
[0]  39 400
[0]  23 237
[0]  42 434
[0]  25 259
[0]  38 394
[0]  35 363
[0]  36 374
[0]  35 364
[0]  32 334
[0]  37 387
[0]  34 358
[0]  28 298
[0]  32 342
[0]  41 439
[0]  40 429
[0]  37 397
[0]  37 403
[0]  34 371
[0]  29 317
[0]  41 458
[0]  38 429
[0]  40 452
[0]  22 251
[0]  29 334
[0]  21 242
[0]  35 407
[0]  36 420
[0]  24 281
[0]  27 317
[0]  36 423
[0]  27 318
[0]  39 463
[0]  30 357
[0]  22 262
[0]  22 262
[0]  23 274
[0]  24 286
[0]  38 453
[0]  35 419
[0]  38 457
[0]  36 433
[0]  34 410
[0]  40 488
[0]  32 392
[0]  31 381
[0]  19 234
[0]  34 419
[0]  21 260
[0]  29 361
[0]  37 461
[0]  29 363
[0]  22 279
[0]  29 375
[0]  36 466
[0]  22 285
[0]  34 442
[0]  26 342
[0]  18 239
[0]  20 266
[0]  28 373
[0]  18 240
[0]  34 454
[0]  27 361
[0]  23 308
[0]  23 309
[0]  15 202
[0]  33 456
[0]  20 278
[0]  24 334
[0]  32 446
[0]  22 308
[0]  25 351
[0]  35 492
[0]  30 422
[0]  21 296
[0]  15 212
[0]  21 297
[0]  29 414
[0]  29 414
[0]  19 272
[0]  28 402
[0]  20 288
[0]  20 290
[0]  17 248
[0]  32 469
[0]  27 396
[0]  32 471
[0]  27 398
[0]  28 413
[0]  29 433
[0]  23 344
[0]  25 376
[0]  26 394
[0]  32 488
[0]  26 397
[0]  18 277
[0]  19 293
[0]  23 355
[0]  29 448
[0]  23 360
[0]  29 454
[0]  22 345
[0]  18 283
[0]  19 299
[0]  31 493
[0]  22 351
[0]  26 415
[0]  29 464
[0]  15 241
[0]  19 307
[0]  25 404
[0]  24 391
[0]  28 457
[0]  17 279
[0]  16 266
[0]  27 451
[0]  14 234
[0]  27 452
[0]  19 321
[0]  20 339
[0]  28 476
[0]  27 460
[0]  29 495
[0]  16 274
[0]  25 430
[0]  25 431
[0]  23 397
[0]  22 387
[0]  27 475
[0]  21 370
[0]  16 282
[0]  21 371
[0]  21 373
[0]  27 481
[0]  12 215
[0]  17 306
[0]  27 486
[0]  19 343
[0]  14 253
[0]  25 458
[0]  25 460
[0]  13 240
[0]  23 425
[0]  18 334
[0]  19 354
[0]  24 448
[0]  12 227
[0]  18 342
[0]  20 384
[0]  24 465
[0]  24 466
[0]  14 272
[0]  22 429
[0]  23 452
[0]  19 376
[0]  11 218
[0]  24 476
[0]  23 458
[0]  14 279
[0]  22 439
[0]  22 441
[0]  24 486
[0]  13 265
[0]  14 286
[0]  10 205
[0]  20 411
[0]  16 329
[0]  22 453
[0]  22 455
[0]  11 228
[0]  11 230
[0]  23 482
[0]  20 421
[0]  19 402
[0]  23 487
[0]  17 360
[0]  20 425
[0]  12 255
[0]  17 362
[0]  23 492
[0]  17 368
[0]  20 434
[0]  11 239
[0]  15 326
[0]  17 377
[0]  19 426
[0]  18 411
[0]  13 297
[0]  13 298
[0]  17 392
[0]  13 300
[0]  13 300
[0]  15 347
[0]  20 464
[0]  14 327
[0]  17 398
[0]  18 426
[0]  18 427
[0]  15 358
[0]  15 359
[0]  20 481
[0]  14 338
[0]  12 290
[0]  13 319
[0]  13 321
[0]  17 430
[0]  17 431
[0]  15 381
[0]  18 459
[0]  14 357
[0]  11 281
[0]  11 283
[0]  11 284
[0]  12 311
[0]  15 393
[0]  18 475
[0]  17 449
[0]  11 293
[0]  11 293
[0]  14 373
[0]  10 268
[0]  14 381
[0]  10 274
[0]  14 384
[0]  14 391
[0]  17 481
[0]  11 321
[0]  14 420
[0]  15 450
[0]  11 333
[0]  15 460
[0]  14 432
[0]  10 310
[0]  15 481
[0]  12 390
[0]  11 360
[0]  14 472
[0]  12 405
[0]  11 374
[0]  12 413
[0]  13 448
[0]  11 381
[0]  10 350
[0]  10 370
[0]  11 436
[0]  12 487
[0]  10 425
[0]  11 471
[0]  11 472
[0]  10 435
[0]  11 479
[0]  11 483
[0]  11 491
[0]  10 468
[0]  10 474
[0]  10 498
